SAMPLE

VEHICLE
NUMBER     CAPACITY
  25         30

CUSTOMER
CUST NO.  XCOORD.   YCOORD.    DEMAND   READY TIME  DUE DATE   SERVICE   TIME
 
    0      0         0          0          0       300          0   
    1      12         5         5        10        70         30   
    2      15         8         8        20        90         30   
    3      10         2         6         0        80         30   
    4      -10         5         7        50        130         30   
    5      -12         8         4         30         100         30   
    6      -8         12         9        60        120         30   
    7      0         15         10        80        150         30   
    8      -5         -10         5        40        130         30   
    9      -8         -12         8        100        180         30   
   10      -10         -15         6        120        210         30   
    
